NAME : rnd0_20.tsp
TYPE : TSP
DIMENSION : 20
EDGE_WEIGHT_TYPE : EUC_2D
NODE_COORD_SECTION
1 376 935
2 469 551
3 23 638
4 439 232
5 219 810
6 497 428
7 808 626
8 593 172
9 933 132
10 988 487
11 41 49
12 45 367
13 373 325
14 426 45
15 38 445
16 767 691
17 88 254
18 436 959
19 245 560
20 498 675
